
  22   10
  10   10   10   10   10   10   10   10   10   10

   0   0   0   0   0   0   0   0   0   0   0   3 2 4 11 
   3  10  10  10  10  10  10  10  10  10  10   3 9 8 3 
   2  10  10  10  10  10  10  10  10  10  10   2 7 5 
   4  10  10  10  10  10  10  10  10  10  10   4 13 10 8 7 
   2  10  10  10  10  10  10  10  10  10  10   4 20 12 10 6 
   5  10  10  10  10  10  10  10  10  10  10   5 19 18 16 15 13 
   6  10  10  10  10  10  10  10  10  10  10   4 20 16 15 12 
   8  10  10  10  10  10  10  10  10  10  10   4 20 19 17 14 
   4  10  10  10  10  10  10  10  10  10  10   4 20 19 17 14 
  10  10  10  10  10  10  10  10  10  10  10   3 19 17 14 
   3  10  10  10  10  10  10  10  10  10  10   2 15 14 
   6  10  10  10  10  10  10  10  10  10  10   2 17 14 
   8  10  10  10  10  10  10  10  10  10  10   2 21 17 
   7  10  10  10  10  10  10  10  10  10  10   1 18 
   3  10  10  10  10  10  10  10  10  10  10   1 17 
  10  10  10  10  10  10  10  10  10  10  10   1 17 
   7  10  10  10  10  10  10  10  10  10  10   1 22
   2  10  10  10  10  10  10  10  10  10  10   1 22
   9  10  10  10  10  10  10  10  10  10  10   1 22
   6  10  10  10  10  10  10  10  10  10  10   1 22
   3  10  10  10  10  10  10  10  10  10  10   1 22
   0   0   0   0   0   0   0   0   0   0   0   0 
